Route #1: 18 67 60 200 145 102 75 69 196 138 124 5 173 58 174 70 113 82 2 106 182 54 110 109 12 25 87 163 
Route #2: 23 41 47 77 152 143 119 71 48 167 197 194 95 128 32 6 40 21 68 13 38 107 122 186 125 42 185 101 112 127 114 24 136 50 86 99 
Route #3: 34 4 100 135 170 63 3 165 104 158 144 111 
Route #4: 61 92 184 191 178 44 146 193 27 159 187 7 156 22 55 96 80 
Route #5: 74 192 36 33 62 179 137 117 162 35 177 134 94 28 149 108 76 188 97 190 52 39 
Route #6: 131 199 56 116 65 118 139 88 103 19 43 31 132 195 15 59 51 172 81 120 49 9 29 147 160 129 37 155 1 175 140 72 115 
Route #7: 164 183 181 45 8 26 161 79 91 73 180 14 176 105 123 130 198 93 10 46 85 126 154 53 171 
Route #8: 168 151 78 150 57 90 133 66 142 11 141 84 157 166 89 16 17 64 98 189 121 20 30 83 153 169 148 
Cost 3061.1
